c CNF file corresponding to a (partial) station packing problem.
p cnf 6836 229
6820 6821 6822 6823 6824 6825 6826 6827 6828 6829 6830 6831 6832 6833 6834 6835 6836 0
-6820 -6821 0
-6820 -6822 0
-6820 -6823 0
-6820 -6824 0
-6820 -6825 0
-6820 -6826 0
-6820 -6827 0
-6820 -6828 0
-6820 -6829 0
-6820 -6830 0
-6820 -6831 0
-6820 -6832 0
-6820 -6833 0
-6820 -6834 0
-6820 -6835 0
-6820 -6836 0
-6821 -6822 0
-6821 -6823 0
-6821 -6824 0
-6821 -6825 0
-6821 -6826 0
-6821 -6827 0
-6821 -6828 0
-6821 -6829 0
-6821 -6830 0
-6821 -6831 0
-6821 -6832 0
-6821 -6833 0
-6821 -6834 0
-6821 -6835 0
-6821 -6836 0
-6822 -6823 0
-6822 -6824 0
-6822 -6825 0
-6822 -6826 0
-6822 -6827 0
-6822 -6828 0
-6822 -6829 0
-6822 -6830 0
-6822 -6831 0
-6822 -6832 0
-6822 -6833 0
-6822 -6834 0
-6822 -6835 0
-6822 -6836 0
-6823 -6824 0
-6823 -6825 0
-6823 -6826 0
-6823 -6827 0
-6823 -6828 0
-6823 -6829 0
-6823 -6830 0
-6823 -6831 0
-6823 -6832 0
-6823 -6833 0
-6823 -6834 0
-6823 -6835 0
-6823 -6836 0
-6824 -6825 0
-6824 -6826 0
-6824 -6827 0
-6824 -6828 0
-6824 -6829 0
-6824 -6830 0
-6824 -6831 0
-6824 -6832 0
-6824 -6833 0
-6824 -6834 0
-6824 -6835 0
-6824 -6836 0
-6825 -6826 0
-6825 -6827 0
-6825 -6828 0
-6825 -6829 0
-6825 -6830 0
-6825 -6831 0
-6825 -6832 0
-6825 -6833 0
-6825 -6834 0
-6825 -6835 0
-6825 -6836 0
-6826 -6827 0
-6826 -6828 0
-6826 -6829 0
-6826 -6830 0
-6826 -6831 0
-6826 -6832 0
-6826 -6833 0
-6826 -6834 0
-6826 -6835 0
-6826 -6836 0
-6827 -6828 0
-6827 -6829 0
-6827 -6830 0
-6827 -6831 0
-6827 -6832 0
-6827 -6833 0
-6827 -6834 0
-6827 -6835 0
-6827 -6836 0
-6828 -6829 0
-6828 -6830 0
-6828 -6831 0
-6828 -6832 0
-6828 -6833 0
-6828 -6834 0
-6828 -6835 0
-6828 -6836 0
-6829 -6830 0
-6829 -6831 0
-6829 -6832 0
-6829 -6833 0
-6829 -6834 0
-6829 -6835 0
-6829 -6836 0
-6830 -6831 0
-6830 -6832 0
-6830 -6833 0
-6830 -6834 0
-6830 -6835 0
-6830 -6836 0
-6831 -6832 0
-6831 -6833 0
-6831 -6834 0
-6831 -6835 0
-6831 -6836 0
-6832 -6833 0
-6832 -6834 0
-6832 -6835 0
-6832 -6836 0
-6833 -6834 0
-6833 -6835 0
-6833 -6836 0
-6834 -6835 0
-6834 -6836 0
-6835 -6836 0
1 2 3 4 5 6 7 8 9 10 11 12 13 14 0
-1 -2 0
-1 -3 0
-1 -4 0
-1 -5 0
-1 -6 0
-1 -7 0
-1 -8 0
-1 -9 0
-1 -10 0
-1 -11 0
-1 -12 0
-1 -13 0
-1 -14 0
-2 -3 0
-2 -4 0
-2 -5 0
-2 -6 0
-2 -7 0
-2 -8 0
-2 -9 0
-2 -10 0
-2 -11 0
-2 -12 0
-2 -13 0
-2 -14 0
-3 -4 0
-3 -5 0
-3 -6 0
-3 -7 0
-3 -8 0
-3 -9 0
-3 -10 0
-3 -11 0
-3 -12 0
-3 -13 0
-3 -14 0
-4 -5 0
-4 -6 0
-4 -7 0
-4 -8 0
-4 -9 0
-4 -10 0
-4 -11 0
-4 -12 0
-4 -13 0
-4 -14 0
-5 -6 0
-5 -7 0
-5 -8 0
-5 -9 0
-5 -10 0
-5 -11 0
-5 -12 0
-5 -13 0
-5 -14 0
-6 -7 0
-6 -8 0
-6 -9 0
-6 -10 0
-6 -11 0
-6 -12 0
-6 -13 0
-6 -14 0
-7 -8 0
-7 -9 0
-7 -10 0
-7 -11 0
-7 -12 0
-7 -13 0
-7 -14 0
-8 -9 0
-8 -10 0
-8 -11 0
-8 -12 0
-8 -13 0
-8 -14 0
-9 -10 0
-9 -11 0
-9 -12 0
-9 -13 0
-9 -14 0
-10 -11 0
-10 -12 0
-10 -13 0
-10 -14 0
-11 -12 0
-11 -13 0
-11 -14 0
-12 -13 0
-12 -14 0
-13 -14 0
